NAME          
ROWS
 N  OBJ
 L  c1
COLUMNS
    MARKER    'MARKER'                 'INTORG'
    x[1]      c1        538
    x[1]      OBJ       -997
    x[2]      c1        691
    x[2]      OBJ       -267
    x[3]      c1        258
    x[3]      OBJ       -960
    x[4]      c1        65
    x[4]      OBJ       -358
    x[5]      c1        690
    x[5]      OBJ       -549
    x[6]      c1        595
    x[6]      OBJ       -976
    x[7]      c1        159
    x[7]      OBJ       -597
    x[8]      c1        397
    x[8]      OBJ       -907
    x[9]      c1        221
    x[9]      OBJ       -716
    x[10]     c1        334
    x[10]     OBJ       -189
RHS
    rhs       c1        1974
RANGES
BOUNDS
 BV bounds    x[1]
 BV bounds    x[2]
 BV bounds    x[3]
 BV bounds    x[4]
 BV bounds    x[5]
 BV bounds    x[6]
 BV bounds    x[7]
 BV bounds    x[8]
 BV bounds    x[9]
 BV bounds    x[10]
ENDATA
